SCIP version 5.0.0 [precision: 8 byte] [memory: block] [mode: optimized] [LP solver: NONE] [GitHash: 3bbd232]
Copyright (C) 2002-2017 Konrad-Zuse-Zentrum fuer Informationstechnik Berlin (ZIB)

External codes: 
  Readline EditLine w  GNU library for command line editing (gnu.org/s/readline)
  CppAD 20160000.1     Algorithmic Differentiation of C++ algorithms developed by B. Bell (www.coin-or.org/CppAD)
  ZLIB 1.2.5           General purpose compression library by J. Gailly and M. Adler (zlib.net)
  GMP 6.1.2            GNU Multiple Precision Arithmetic Library developed by T. Granlund (gmplib.org)

user parameter file <scip.set> not found - using default parameters

read problem <../../Split_data/output/seismic-bumps/7/3_sample_seismic-bumps.logreg>
============

File name	:	../../Split_data/output/seismic-bumps/7/3_sample_seismic-bumps.logreg
Problem name 	:	3_sample_seismic-bumps
Number of data	:	2067
Number of var	:	21
The given data has linear dependence
4 sets of column vector are linearly dependent:
{ 2 3}, { 4 5 6}, { 7 8}, { 13 14 15}, 

[dim=1] time: 0.032753
[dim=2] time: 0.068338
[dim=3] time: 0.101599
[dim=4] time: 0.134999
[dim=5] time: 0.165921
[dim=6] time: 0.194986
[dim=7] time: 0.220379
[dim=8] Time of forward = 0.242554sec.
AIC: 872.792
k: 7

[dim=17] time: 0.394686
[dim=16] time: 0.742655
[dim=15] time: 1.10399
[dim=14] time: 2.62069
[dim=13] time: 3.43519
[dim=12] time: 3.91178
[dim=11] time: 4.20346
[dim=10] time: 4.46914
[dim=9] Time of backward = 4.48476sec.
AIC: 868.522
k: 10
